JulietBench/Juliet_Based_Patch_Bench/FFmpeg/CWE-189-Numeric-Errors/CVE_2013_0859_6d1c5ea04af3e345232aa70c944de961061dab2d/Resultadd_doubles_metadata_Snippet_patch2NEQ.smt2
; benchmark generated from python API
(set-info :status unknown)
(declare-fun R () (_ BitVec 32))
(declare-fun rdi () (_ BitVec 64))
(assert
 (let (($x148 (and (distinct (_ bv8 32) R) true)))
 (let ((?x161 ((_ extract 28 0) rdi)))
 (let ((?x155 (concat ?x161 (_ bv0 3))))
 (let (($x152 (= R ?x155)))
 (let ((?x6 ((_ extract 31 0) rdi)))
 (let (($x30 (bvule ?x6 (_ bv268435454 32))))
 (let (($x147 (and $x30 $x152)))
 (let (($x28 (= (_ bv3199971767 32) R)))
 (let (($x136 (bvugt ?x6 (_ bv268435454 32))))
 (let (($x140 (and $x136 $x28)))
 (let (($x162 (or $x140 $x147)))
 (let (($x153 (not $x162)))
 (let (($x158 (and $x153 $x148)))
 (let (($x160 (= (_ bv8 32) R)))
 (let (($x163 (and $x162 $x160)))
 (let (($x146 (or $x163 $x158)))
 (not $x146))))))))))))))))))
(check-sat)
